qbf_easy_train/easy_1609_SAT.qdimacs
p cnf 33 93
a 10 18 0
e 1 2 3 4 5 6 7 8 9 11 12 13 14 15 16 17 19 20 21 22 23 24 25 26 27 28 29 30 31 32 33 0
3 -2 0
3 -2 0
2 -3 0
-1 -3 -4 0
1 3 -4 0
-1 3 4 0
1 -3 4 0
-6 5 0
-6 -1 0
-5 1 6 0
-7 8 -9 0
7 -8 -9 0
-7 -8 9 0
7 8 9 0
5 -9 -10 0
-5 9 -10 0
5 9 10 0
-5 -9 10 0
-11 6 0
-11 -10 0
-6 10 11 0
-12 -4 0
-12 -11 0
4 11 12 0
-13 9 0
-13 -6 0
-9 6 13 0
14 -6 0
14 13 0
6 -13 -14 0
-15 7 -16 0
15 -7 -16 0
-15 -7 16 0
15 7 16 0
16 -10 -17 0
-16 10 -17 0
16 10 17 0
-16 -10 17 0
-18 -14 0
-18 17 0
14 -17 18 0
19 12 0
19 18 0
-12 -18 -19 0
20 -8 0
20 -2 0
8 2 -20 0
-21 15 0
-21 -6 0
-15 6 21 0
-22 -21 0
-22 7 0
21 -7 22 0
24 22 0
24 -23 0
-22 23 -24 0
20 24 -25 0
-20 -24 -25 0
20 -24 25 0
-20 24 25 0
26 8 0
26 -16 0
-8 16 -26 0
25 -26 -27 0
-25 26 -27 0
25 26 27 0
-25 -26 27 0
-23 -8 -28 0
23 8 -28 0
-23 8 28 0
23 -8 28 0
-7 -29 -30 0
7 29 -30 0
-7 29 30 0
7 -29 30 0
31 -28 0
31 30 0
28 -30 -31 0
32 27 0
32 31 0
-27 -31 -32 0
33 19 0
33 32 0
-19 -32 -33 0
21 14 -20 -2 -6 18 0
11 3 -1 29 24 -7 -32 0
31 18 3 -27 0
-14 6 -19 24 30 -29 5 -3 0
-22 28 -1 -7 16 0
-22 -32 -4 -19 33 0
-26 11 14 9 2 19 25 0
32 31 -7 -10 0
33 0
