sat_easy_train/easy_1609_SAT.dimacs
p cnf 51 136
-3 -4 -5 0
3 4 -5 0
-3 4 5 0
3 -4 5 0
2 5 -6 0
-2 -5 -6 0
2 -5 6 0
-2 5 6 0
7 2 0
7 6 0
-2 -6 -7 0
-8 -1 0
-8 7 0
1 -7 8 0
11 9 0
11 10 0
-9 -10 -11 0
12 -8 0
12 -11 0
8 11 -12 0
-14 -4 0
-14 -13 0
4 13 14 0
3 5 -15 0
-3 -5 -15 0
3 -5 15 0
-3 5 15 0
14 -15 -16 0
-14 15 -16 0
14 15 16 0
-14 -15 16 0
-18 13 0
-18 17 0
-13 -17 18 0
-19 -18 0
-19 4 0
18 -4 19 0
-22 13 -23 0
22 -13 -23 0
-22 -13 23 0
22 13 23 0
-24 21 0
-24 23 0
-21 -23 24 0
25 -20 0
25 24 0
20 -24 -25 0
26 20 -27 0
-26 -20 -27 0
26 -20 27 0
-26 20 27 0
-29 -28 0
-29 27 0
28 -27 29 0
-30 27 0
-30 -29 0
-27 29 30 0
-25 -30 -31 0
25 30 -31 0
-25 30 31 0
25 -30 31 0
32 19 0
32 31 0
-19 -31 -32 0
33 16 0
33 32 0
-16 -32 -33 0
20 -34 -35 0
-20 34 -35 0
20 34 35 0
-20 -34 35 0
36 33 0
36 35 0
-33 -35 -36 0
37 12 0
37 36 0
-12 -36 -37 0
9 28 -38 0
-9 -28 -38 0
9 -28 38 0
-9 28 38 0
40 18 0
40 39 0
-18 -39 -40 0
-41 38 0
-41 -40 0
-38 40 41 0
-42 -37 0
-42 -41 0
37 41 42 0
13 -43 -44 0
-13 43 -44 0
13 43 44 0
-13 -43 44 0
45 -18 0
45 2 0
18 -2 -45 0
46 27 0
46 27 0
-27 -46 0
47 -45 0
47 -46 0
45 46 -47 0
-44 47 -48 0
44 -47 -48 0
-44 -47 48 0
44 47 48 0
-23 4 -49 0
23 -4 -49 0
-23 -4 49 0
23 4 49 0
50 -48 0
50 49 0
48 -49 -50 0
51 -42 0
51 -50 0
42 50 -51 0
-21 12 -40 0
-45 -20 -34 41 -3 0
46 32 -4 -34 -12 0
-33 -36 -38 -11 -28 0
17 -49 0
22 33 50 -15 0
-32 20 -26 -24 31 -14 0
29 -39 36 35 -51 43 0
-4 -46 -38 -44 48 0
37 25 42 0
-21 51 -4 0
-34 -1 -4 -50 -15 0
28 0
-42 -44 -43 0
33 -15 26 -34 10 0
-42 50 28 -41 7 0
-9 -28 -4 -19 0
49 43 -39 3 8 0
51 0
